(declare-const |s__state':84| Int)
(declare-const |K:89| Int)
(declare-const |phi_blastFlag:16:22:50:51| Int)
(declare-const |phi_blastFlag:52| Int)
(declare-const |blastFlag':85| Int)
(assert (and (or (not (<= (- |K:89|) 0))
                   (<= (+ |s__state':84| (* -190 |K:89|) -8466) 0))
               (or (not (<= (- |K:89|) 0))
                     (<= (+ |blastFlag':85| (* -2 |K:89|)) 0))
               (or (not (<= (- |K:89|) 0)) (<= (- |blastFlag':85|) 0))
               (or (not (<= (- |K:89|) 0))
                     (<= (+ (* 62 |blastFlag':85|) (- |s__state':84|)
                              (* -78 |K:89|) 8466) 0))
               (or (not (<= (- |K:89|) 0))
                     (<= (+ (* 30 |blastFlag':85|) (- |s__state':84|)
                              (* -46 |K:89|) 8466) 0))
               (or (and (= |K:89| 0) (= (- |blastFlag':85|) 0)
                          (= (+ (- |s__state':84|) 8466) 0))
                     (and (<= (+ (- |K:89|) 1) 0)
                            (<= (+ |s__state':84| -8656) 0)
                            (<= (- |blastFlag':85|) 0)
                            (<= (+ (- |s__state':84|) 8466) 0)))
               (<= (- |K:89|) 0) (< (- |s__state':84|) 0)
               (<= (- |blastFlag':85|) 0)
               (or (and (or (< (+ (- |s__state':84|) 8512) 0)
                              (and (<= (+ |s__state':84| -8512) 0)
                                     (<= (+ |blastFlag':85| -2) 0)))
                          (not (= (+ |s__state':84| -8466) 0))
                          (not (= (+ |s__state':84| -8512) 0))
                          (not (= (+ |s__state':84| -8640) 0))
                          (= (+ |s__state':84| -8656) 0)
                          (or (and (not (= (+ |blastFlag':85| -2) 0))
                                     (= (+ (- |phi_blastFlag:16:22:50:51|)
                                             |blastFlag':85|) 0))
                                (and (= (+ |blastFlag':85| -2) 0)
                                       (= (+ (- |phi_blastFlag:16:22:50:51|)
                                               3) 0)))
                          (not (= (+ |phi_blastFlag:16:22:50:51| -4) 0))
                          (= (+ |phi_blastFlag:16:22:50:51| -5) 0)
                          (= (+ (- |phi_blastFlag:52|)
                                  |phi_blastFlag:16:22:50:51|) 0))
                     (and (<= (+ |s__state':84| -8512) 0)
                            (< (+ (- |blastFlag':85|) 2) 0)
                            (= (+ (- |phi_blastFlag:52|) |blastFlag':85|) 0)))))
(check-sat)
